690523
0,35,6,209,182,19,116,15,188,184,2,137,59,136,14,29,7,119,96,193,164,13,109,200,9,199,197,113,190,151,121,50,176,225,68,22,207,158,177,30,198,97,41,159,112,72,208,217,205,135,172,147,130,123,187,180,194,85,69,125,118,192,83,28,64,153,163,173,75,56,94,78,166,84,122,24,60,181,79,131,51,92,167,171,203,1,114,148,76,221,40,127,105,140,218,23,65,189,98,215,99,52,91,17,55,53,174,104,201,120,179,157,81,229,44,211,103,102,186,11,145,87,108,185,170,149,89,169,141,227,3,20,216,152,128,32,223,37,202,5,212,220,58,57,138,10,142,196,213,45,124,226,18,133,110,47,224,46,16,222,175,12,219,43,63,4,155,210,144,143,25,21,90,67,8,100,183,160,115,165,95,88,106,195,178,191,36,33,204,74,214,77,27,49,107,93,34,86,150,54,61,101,129,80,39,168,26,111,154,132,228,161,134,82,156,73,66,38,206,42,146,126,162,48,117,70,139,31,62,71,0